50
150
100
98
98
97
97
97
96
94
93
90
89
88
88
85
84
84
83
83
81
80
78
76
75
73
73
71
71
70
69
66
65
64
64
63
60
60
57
56
54
54
53
53
48
43
42
38
34
32
31
30
